
Starting CP-SAT solver v9.15.6755
Parameters: random_seed: 2026072667 max_time_in_seconds: 2500 log_search_progress: true cp_model_presolve: true linearization_level: 2 num_search_workers: 4 cp_model_probing_level: 2 symmetry_level: 2

Initial satisfaction model '': (model_fingerprint: 0x83b9cc25dc465f8c)
#Variables: 724 (598 primary variables)
  - 724 Booleans in [0,1]
#kBoolAnd: 110 (#enforced: 110) (#literals: 330)
#kBoolOr: 110 (#enforced: 110) (#literals: 220)
#kExactlyOne: 87 (#literals: 261)
#kLinear1: 42 (#enforced: 6)
#kLinear2: 336 (#enforced: 336) (#complex_domain: 110)
#kLinear3: 1'600 (#enforced: 6)
#kLinearN: 1'132 (#enforced: 243) (#terms: 9'111)

Starting presolve at 0.00s
  6.68e-04s  0.00e+00d  [DetectDominanceRelations] 
  8.72e-03s  0.00e+00d  [PresolveToFixPoint] #num_loops=3 #num_dual_strengthening=1 
  3.86e-05s  0.00e+00d  [ExtractEncodingFromLinear] #potential_supersets=75 
  3.08e-04s  0.00e+00d  [DetectDuplicateColumns] 
  1.14e-04s  0.00e+00d  [DetectDuplicateConstraints] #duplicates=15 
[Symmetry] Graph for symmetry has 4'813 nodes and 15'261 arcs.
[Symmetry] Symmetry computation done. time: 0.00121736 dtime: 0.00174729
[SAT presolve] num removable Booleans: 220 / 604
[SAT presolve] num trivial clauses: 0
[SAT presolve] [0s] clauses:2'672 literals:7'308 vars:498 one_side_vars:57 simple_definition:1 singleton_clauses:0
[SAT presolve] [0.000227506s] clauses:2'648 literals:7'235 vars:498 one_side_vars:58 simple_definition:2 singleton_clauses:1
[SAT presolve] [0.000536846s] clauses:2'417 literals:6'897 vars:385 one_side_vars:58 simple_definition:2 singleton_clauses:1
  1.17e-04s  0.00e+00d  [DetectDuplicateConstraintsWithDifferentEnforcements] 
  5.44e-03s  2.88e-03d  [Probe] #probed=1'254 #fixed_bools=9 #equiv=5 #new_binary_clauses=547 
  5.65e-04s  4.67e-04d  [MaxClique] Merged 623 constraints with 1'367 literals into 568 constraints with 1'270 literals
  8.50e-04s  0.00e+00d  [DetectDominanceRelations] 
  3.12e-03s  0.00e+00d  [PresolveToFixPoint] #num_loops=1 #num_dual_strengthening=1 
  1.13e-03s  0.00e+00d  [ProcessAtMostOneAndLinear] 
  1.00e-04s  0.00e+00d  [DetectDuplicateConstraints] #duplicates=4 
  1.10e-04s  0.00e+00d  [DetectDuplicateConstraintsWithDifferentEnforcements] 
  1.51e-03s  6.86e-05d  [DetectDominatedLinearConstraints] #relevant_constraints=814 #num_inclusions=355 #num_redundant=9 
  1.10e-04s  0.00e+00d  [DetectDifferentVariables] 
  7.68e-04s  9.04e-05d  [ProcessSetPPC] #relevant_constraints=3'194 #num_inclusions=316 
  2.92e-04s  3.48e-05d  [TransformClausesToExactlyOne] #num_amos=577 #num_clauses=1'814 #num_transformed=2 #num_checked=1'814 
  3.91e-05s  0.00e+00d  [DetectEncodedComplexDomains] 
  3.36e-05s  1.00e-07d  [FindAlmostIdenticalLinearConstraints] #num_tested_pairs=1 
  9.23e-04s  1.36e-03d  [FindBigAtMostOneAndLinearOverlap] 
  1.49e-03s  1.22e-03d  [FindBigVerticalLinearOverlap] #blocks=2 #saved_nz=68 
  3.74e-04s  6.60e-04d  [FindBigHorizontalLinearOverlap] #linears=442 
  3.48e-04s  2.84e-05d  [MergeClauses] #num_collisions=13 #num_merges=13 #num_saved_literals=26 
  6.11e-04s  0.00e+00d  [DetectDominanceRelations] 
  2.88e-03s  0.00e+00d  [PresolveToFixPoint] #num_loops=2 #num_dual_strengthening=1 
  5.87e-04s  0.00e+00d  [DetectDominanceRelations] 
  2.72e-03s  0.00e+00d  [PresolveToFixPoint] #num_loops=1 #num_dual_strengthening=1 
  1.23e-04s  0.00e+00d  [DetectDuplicateColumns] 
  9.38e-05s  0.00e+00d  [DetectDuplicateConstraints] 
[Symmetry] Graph for symmetry has 4'531 nodes and 13'903 arcs.
[Symmetry] Symmetry computation done. time: 0.00101722 dtime: 0.0013518
[SAT presolve] num removable Booleans: 105 / 483
[SAT presolve] num trivial clauses: 0
[SAT presolve] [0s] clauses:2'380 literals:6'824 vars:460 one_side_vars:132 simple_definition:9 singleton_clauses:0
[SAT presolve] [0.000220023s] clauses:2'378 literals:6'648 vars:460 one_side_vars:133 simple_definition:89 singleton_clauses:0
[SAT presolve] [0.000363221s] clauses:2'191 literals:6'204 vars:458 one_side_vars:170 simple_definition:70 singleton_clauses:0
  1.77e-04s  0.00e+00d  [DetectDuplicateConstraintsWithDifferentEnforcements] 
  5.53e-03s  1.86e-03d  [Probe] #probed=1'258 #new_binary_clauses=432 
  3.87e-04s  2.76e-04d  [MaxClique] Merged 474 constraints with 1'031 literals into 469 constraints with 1'025 literals
  8.18e-04s  0.00e+00d  [DetectDominanceRelations] 
  3.00e-03s  0.00e+00d  [PresolveToFixPoint] #num_loops=1 #num_dual_strengthening=1 
  1.05e-03s  0.00e+00d  [ProcessAtMostOneAndLinear] 
  1.05e-04s  0.00e+00d  [DetectDuplicateConstraints] 
  1.10e-04s  0.00e+00d  [DetectDuplicateConstraintsWithDifferentEnforcements] 
  3.38e-03s  9.33e-05d  [DetectDominatedLinearConstraints] #relevant_constraints=802 #num_inclusions=471 
  1.21e-04s  0.00e+00d  [DetectDifferentVariables] 
  7.54e-04s  7.75e-05d  [ProcessSetPPC] #relevant_constraints=3'066 #num_inclusions=127 
  2.72e-04s  3.30e-05d  [TransformClausesToExactlyOne] #num_amos=468 #num_clauses=1'746 #num_checked=1'746 
  1.43e-04s  0.00e+00d  [DetectEncodedComplexDomains] 
  4.18e-05s  1.60e-07d  [FindAlmostIdenticalLinearConstraints] #num_tested_pairs=2 
  8.48e-04s  1.23e-03d  [FindBigAtMostOneAndLinearOverlap] 
  1.32e-03s  1.12e-03d  [FindBigVerticalLinearOverlap] 
  3.64e-04s  6.60e-04d  [FindBigHorizontalLinearOverlap] #linears=442 
  3.25e-04s  2.66e-05d  [MergeClauses] #num_collisions=84 #num_merges=84 #num_saved_literals=193 
  8.30e-04s  0.00e+00d  [DetectDominanceRelations] 
  2.99e-03s  0.00e+00d  [PresolveToFixPoint] #num_loops=1 #num_dual_strengthening=1 
  8.21e-04s  0.00e+00d  [DetectDominanceRelations] 
  2.98e-03s  0.00e+00d  [PresolveToFixPoint] #num_loops=1 #num_dual_strengthening=1 
  1.73e-04s  0.00e+00d  [DetectDuplicateColumns] 
  1.05e-04s  0.00e+00d  [DetectDuplicateConstraints] 
[Symmetry] Graph for symmetry has 4'272 nodes and 12'988 arcs.
[Symmetry] Symmetry computation done. time: 0.000878165 dtime: 0.00131264
[SAT presolve] num removable Booleans: 103 / 481
[SAT presolve] num trivial clauses: 0
[SAT presolve] [0s] clauses:2'181 literals:6'182 vars:458 one_side_vars:170 simple_definition:70 singleton_clauses:0
[SAT presolve] [0.000204753s] clauses:2'181 literals:6'182 vars:458 one_side_vars:170 simple_definition:70 singleton_clauses:0
[SAT presolve] [0.000263994s] clauses:2'181 literals:6'182 vars:458 one_side_vars:170 simple_definition:70 singleton_clauses:0
  1.56e-04s  0.00e+00d  [DetectDuplicateConstraintsWithDifferentEnforcements] 
  5.51e-03s  1.86e-03d  [Probe] #probed=1'258 #new_binary_clauses=432 
  4.16e-04s  2.74e-04d  [MaxClique] 
  8.37e-04s  0.00e+00d  [DetectDominanceRelations] 
  3.02e-03s  0.00e+00d  [PresolveToFixPoint] #num_loops=1 #num_dual_strengthening=1 
  1.06e-03s  0.00e+00d  [ProcessAtMostOneAndLinear] 
  1.16e-04s  0.00e+00d  [DetectDuplicateConstraints] 
  1.04e-04s  0.00e+00d  [DetectDuplicateConstraintsWithDifferentEnforcements] 
  3.39e-03s  9.33e-05d  [DetectDominatedLinearConstraints] #relevant_constraints=802 #num_inclusions=471 
  1.27e-04s  0.00e+00d  [DetectDifferentVariables] 
  7.21e-04s  7.74e-05d  [ProcessSetPPC] #relevant_constraints=3'063 #num_inclusions=124 
  2.81e-04s  3.30e-05d  [TransformClausesToExactlyOne] #num_amos=466 #num_clauses=1'746 #num_checked=1'746 
  1.41e-04s  0.00e+00d  [DetectEncodedComplexDomains] 
  4.75e-05s  7.00e-08d  [FindAlmostIdenticalLinearConstraints] #num_tested_pairs=1 
  8.41e-04s  1.23e-03d  [FindBigAtMostOneAndLinearOverlap] 
  1.31e-03s  1.12e-03d  [FindBigVerticalLinearOverlap] 
  3.99e-04s  6.60e-04d  [FindBigHorizontalLinearOverlap] #linears=442 
  3.32e-04s  2.66e-05d  [MergeClauses] #num_collisions=84 #num_merges=84 #num_saved_literals=193 
  8.50e-04s  0.00e+00d  [DetectDominanceRelations] 
  3.04e-03s  0.00e+00d  [PresolveToFixPoint] #num_loops=1 #num_dual_strengthening=1 
  3.07e-05s  0.00e+00d  [MergeNoOverlap] 
  3.16e-05s  0.00e+00d  [MergeNoOverlap2D] 

Presolve summary:
  - 31 affine relations were detected.
  - rule 'TODO dual: only one blocking constraint?' was applied 775 times.
  - rule 'TODO linear inclusion: superset is equality' was applied 440 times.
  - rule 'affine: new relation' was applied 31 times.
  - rule 'at_most_one: removed literals' was applied 40 times.
  - rule 'at_most_one: size one' was applied 39 times.
  - rule 'at_most_one: transformed into max clique' was applied 2 times.
  - rule 'bool_or: always true' was applied 1 time.
  - rule 'bool_or: implications' was applied 59 times.
  - rule 'bool_or: only one literal' was applied 12 times.
  - rule 'bool_or: removed enforcement literal' was applied 573 times.
  - rule 'clauses: transformed into exactly one' was applied 2 times.
  - rule 'deductions: 686 stored' was applied 1 time.
  - rule 'duplicate: merged rhs of linear constraint' was applied 18 times.
  - rule 'duplicate: removed constraint' was applied 19 times.
  - rule 'enforcement: false literal' was applied 48 times.
  - rule 'enforcement: true literal' was applied 16 times.
  - rule 'exactly_one: removed literals' was applied 28 times.
  - rule 'exactly_one: satisfied' was applied 13 times.
  - rule 'exactly_one: singleton' was applied 2 times.
  - rule 'exactly_one: size two' was applied 26 times.
  - rule 'exactly_one: x and not(x)' was applied 4 times.
  - rule 'incompatible linear: add implication' was applied 117 times.
  - rule 'linear + amo: empty after processing' was applied 5 times.
  - rule 'linear + amo: extracted enforcement literal' was applied 48 times.
  - rule 'linear + amo: trivial linear constraint' was applied 1 time.
  - rule 'linear inclusion: redundant containing constraint' was applied 3 times.
  - rule 'linear inclusion: redundant included constraint' was applied 5 times.
  - rule 'linear inclusion: sparsify superset' was applied 1 time.
  - rule 'linear matrix: common vertical rectangle' was applied 2 times.
  - rule 'linear1: x in domain' was applied 36 times.
  - rule 'linear2: convert ax + by != cte to clauses' was applied 259 times.
  - rule 'linear2: convert implied ax + by == cte to clauses' was applied 118 times.
  - rule 'linear2: implied ax + by = cte has only one solution' was applied 7 times.
  - rule 'linear: always true' was applied 416 times.
  - rule 'linear: coefficient strengthening by increasing it' was applied 2 times.
  - rule 'linear: empty' was applied 1 time.
  - rule 'linear: extracted at most one (max)' was applied 1 time.
  - rule 'linear: fixed or dup variables' was applied 915 times.
  - rule 'linear: negative clause' was applied 1'304 times.
  - rule 'linear: negative reified and' was applied 68 times.
  - rule 'linear: never in domain' was applied 5 times.
  - rule 'linear: positive at most one' was applied 29 times.
  - rule 'linear: reduced variable domains' was applied 3 times.
  - rule 'linear: remapped using affine relations' was applied 22 times.
  - rule 'new_bool: integer encoding' was applied 6 times.
  - rule 'presolve: 101 unused variables removed.' was applied 1 time.
  - rule 'presolve: iteration' was applied 3 times.
  - rule 'probing: bool_or reduced to implication' was applied 18 times.
  - rule 'probing: simplified clauses' was applied 2 times.
  - rule 'setppc: bool_or in at_most_one' was applied 7 times.
  - rule 'setppc: removed dominated constraints' was applied 79 times.
  - rule 'variables: add encoding constraint' was applied 6 times.

Presolved satisfaction model '': (model_fingerprint: 0x6623a2cdafd35c1f)
#Variables: 483 (416 primary variables)
  - 481 Booleans in [0,1]
  - 2 in [0,2]
#kAtMostOne: 31 (#literals: 145)
#kBoolAnd: 266 (#enforced: 266) (#literals: 701)
#kBoolAndClauses: 84 (#enforced: 84 #multi: 84) (#literals: 361)
#kBoolOr: 1'578 (#literals: 4'758)
#kExactlyOne: 49 (#literals: 185)
#kLinear1: 12 (#enforced: 12)
#kLinearN: 802 (#enforced: 114) (#terms: 5'547)
[Symmetry] Graph for symmetry has 4'023 nodes and 12'988 arcs.
[Symmetry] Symmetry computation done. time: 0.000836707 dtime: 0.00129774

Preloading model.
#Model   0.10s var:483/483 constraints:2822/2822

Starting search at 0.10s with 4 workers.
3 full problem subsolvers: [default_lp, max_lp, no_lp]
1 first solution subsolver: [fj]
2 interleaved subsolvers: [feasibility_pump, rins/rens]
2 helper subsolvers: [neighborhood_helper, synchronization_agent]

#Model   3.51s var:482/483 constraints:2821/2822
#Model  28.02s var:480/483 constraints:2817/2822
#Model  44.10s var:479/483 constraints:2799/2822
#Model  70.23s var:478/483 constraints:2797/2822
#Model 281.19s var:477/483 constraints:2796/2822
#Model 281.29s var:475/483 constraints:2777/2822
#Model 284.50s var:474/483 constraints:2755/2822
#Model 336.40s var:471/483 constraints:2736/2822
#Model 387.40s var:470/483 constraints:2734/2822
#Model 398.68s var:469/483 constraints:2710/2822
#Model 401.92s var:463/483 constraints:2671/2822
#Model 492.05s var:462/483 constraints:2651/2822
#Model 499.33s var:461/483 constraints:2632/2822
#Model 513.09s var:460/483 constraints:2614/2822
#Model 515.12s var:459/483 constraints:2592/2822
#Model 516.74s var:458/483 constraints:2573/2822
#Model 516.79s var:454/483 constraints:2530/2822
#Model 516.89s var:453/483 constraints:2514/2822
#Model 517.12s var:448/483 constraints:2451/2822
#Model 517.52s var:446/483 constraints:2419/2822
#Model 517.67s var:445/483 constraints:2403/2822
#Model 517.84s var:439/483 constraints:2348/2822
#Done  517.89s no_lp

Task timing                   n [     min,      max]      avg      dev     time         n [     min,      max]      avg      dev    dtime
        'default_lp':         1 [   8.63m,    8.63m]    8.63m   0.00ns    8.63m         2 [  2.14ms,    8.83m]    4.42m    4.42m    8.83m
  'feasibility_pump':      2568 [981.78us, 142.74ms]   1.56ms   2.80ms    4.00s      2567 [284.74us, 118.91ms] 333.59us   2.34ms 856.32ms
                'fj':      1907 [113.47ms, 190.55ms] 134.63ms   8.42ms    4.28m      1907 [100.00ms, 100.15ms] 100.02ms  16.08us    3.18m
            'max_lp':         1 [   8.63m,    8.63m]    8.63m   0.00ns    8.63m         2 [ 76.79ms,   10.49m]    5.24m    5.24m   10.49m
             'no_lp':         1 [   8.63m,    8.63m]    8.63m   0.00ns    8.63m         2 [  1.69ms,   16.33m]    8.16m    8.16m   16.33m
         'rins/rens':      2310 [600.74us, 214.49ms] 111.15ms  42.31ms    4.28m      2294 [339.02us, 100.28ms]  67.25ms  37.69ms    2.57m

Search stats     Bools  Conflicts   Branches  Restarts  BacktrackToRoot  Backtrack   BoolPropag  IntegerPropag
  'default_lp':    481     60'262  4'276'407       361          677'980    921'368   39'527'663     49'890'503
      'max_lp':    481     36'234  5'596'926       213          856'861  1'100'171   50'536'638     69'723'021
       'no_lp':    481  5'498'142  8'348'224    22'405          249'745  5'728'288  484'405'987    127'896'483

SAT formula      Fixed  Equiv  Total  VarLeft  BinaryClauses  PermanentClauses  TemporaryClauses
  'default_lp':     22      2    481      457          2'036            21'373             5'030
      'max_lp':     38      2    481      441          2'376            18'183             2'543
       'no_lp':    126      2    481      353          2'178            32'246             6'270

SAT stats        ClassicMinim  LitRemoved  LitRemovedBinary   LitLearned  LitForgotten   Subsumed
  'default_lp':        51'331     573'566           243'425    1'335'776       497'438     26'197
      'max_lp':        29'074     265'752           141'216      636'657       167'391     16'956
       'no_lp':     4'870'387  79'268'771        23'869'020  124'505'635    96'309'613  1'522'291

Vivification     Clauses  Decisions  LitTrue  Subsumed  LitRemoved  DecisionReused  Conflicts
  'default_lp':  763'213  4'104'915       15    10'400     102'281         238'515      1'186
      'max_lp':  950'749  5'439'867        4    12'018     118'092         282'554      1'489
       'no_lp':  207'358  1'763'165        0    13'762     191'688          60'407      1'717

Clause deletion    at_true  l_and_not(l)  to_binary  sub_conflict  sub_extra  sub_decisions  sub_eager  sub_vivify  sub_probing  sub_inpro  blocked  eliminated  forgotten    promoted  conflicts
    'default_lp':    4'733           139         30        25'786        154          1'051        411      10'400        4'153      9'735        0           0     15'932     110'017     60'262
        'max_lp':    6'358           107         33        16'828         73            435        128      12'018        4'028      7'938        0           0      6'398      62'497     36'234
         'no_lp':   52'124           299        167     1'495'481     13'614         71'997     26'810      13'762        8'444     83'166        0           0  3'698'392  12'407'249  5'498'142

Lp stats         Component  Iterations  AddedCuts  OPTIMAL  DUAL_F.  DUAL_U.
  'default_lp':          1   6'271'710     25'038   72'029        1   36'853
      'max_lp':          1   2'763'139     24'663   10'592   17'140    7'262

Lp dimension        Final dimension of first component
  'default_lp':    276 rows, 326 columns, 2115 entries
      'max_lp':  1148 rows, 483 columns, 14599 entries

Lp debug         CutPropag  CutEqPropag  Adjust  Overflow      Bad  BadScaling
  'default_lp':          0            3  36'849         0  724'118           0
      'max_lp':          0            5   7'262         0  685'280           0

Lp pool          Constraints  Updates  Simplif  Merged  Shortened  Split  Strengthened      Cuts/Call
  'default_lp':        9'783    5'402   21'181       0     21'223  1'326             0  25'038/36'807
      'max_lp':       12'807    8'995   34'805       4     33'972  3'323         1'089  24'663/41'975

Lp Cut            default_lp  max_lp
          CG_FF:         556      65
           CG_K:         310       3
          CG_KL:         257       1
           CG_R:         621      31
          CG_RB:           -       1
         Clique:           -     117
             IB:          51       2
       MIR_1_FF:         172     451
        MIR_1_K:          35       7
       MIR_1_KL:         122       6
        MIR_1_R:         159     154
       MIR_1_RB:           -       1
      MIR_1_RLT:           -   2'723
       MIR_2_FF:         153     229
        MIR_2_K:          40      39
       MIR_2_KL:          77      10
        MIR_2_R:         181     227
      MIR_2_RBP:           -       2
       MIR_3_FF:          77      62
        MIR_3_K:          14      14
       MIR_3_KL:          28       3
        MIR_3_R:          79      86
       MIR_4_FF:          20      10
        MIR_4_K:           5       1
       MIR_4_KL:          11       2
        MIR_4_R:          38      43
       MIR_5_FF:           5       4
        MIR_5_K:           -       1
       MIR_5_KL:           1       1
        MIR_5_R:           6      51
       MIR_6_FF:           2       -
       MIR_6_KL:           1       -
        MIR_6_R:           3      50
       MIR_6_RB:           -       1
   ZERO_HALF_FF:          97     254
    ZERO_HALF_K:          17       3
   ZERO_HALF_KL:          32       3
    ZERO_HALF_R:      21'864  19'981
   ZERO_HALF_RB:           -       1
  ZERO_HALF_RBP:           4      23

LNS stats       Improv/Calls  Closed  Difficulty  TimeLimit
  'rins/rens':     2302/2302     50%    8.06e-01       0.10

LS stats                                    Batches  Restarts/Perturbs   LinMoves   GenMoves  CompoundMoves  Bactracks  WeightUpdates  ScoreComputed
                             'fj_restart':       71                 30  2'354'384          0              0          0      1'665'132      1'391'438
                    'fj_restart_compound':       95                 33          0    886'748         73'999    406'297          1'901     15'674'786
                'fj_restart_compound_obj':      120                 26          0  1'141'538         68'949    536'251          2'861     19'915'495
            'fj_restart_compound_perturb':      151                 43          0  1'451'380        108'414    671'398          3'213     24'982'843
        'fj_restart_compound_perturb_obj':       66                 29          0    611'271         57'703    276'725          1'296     10'858'971
                       'fj_restart_decay':      167                 38  4'557'142          0              0          0        199'243      1'475'964
              'fj_restart_decay_compound':      182                 39          0  1'948'838        331'074    808'751          2'199     30'618'257
          'fj_restart_decay_compound_obj':       63                 32          0    597'500        103'541    246'914            772     10'444'148
      'fj_restart_decay_compound_perturb':      135                 41          0  1'395'383        241'384    576'916          1'690     22'598'270
  'fj_restart_decay_compound_perturb_obj':       74                 25          0    741'066        129'621    305'682            896     12'359'353
                   'fj_restart_decay_obj':      272                 40  7'396'814          0              0          0        325'311      2'412'758
               'fj_restart_decay_perturb':      107                 26  2'908'051          0              0          0        128'159        943'297
           'fj_restart_decay_perturb_obj':       92                 34  2'496'577          0              0          0        110'002        810'039
                         'fj_restart_obj':       48                 28  1'602'924          0              0          0      1'123'694        983'116
                     'fj_restart_perturb':      101                 33  3'293'359          0              0          0      2'523'150      1'827'371
                 'fj_restart_perturb_obj':      163                 31  5'505'418          0              0          0      4'102'683      3'197'377

Solution repositories    Added  Queried  Synchro
    'alternative_path':      0        0        0
      'best_solutions':      0        0        0
   'fj solution hints':    520        0      520
        'lp solutions':    261    2'310      261
                'pump':      0        0

Improving bounds shared    Num  Sym
            'default_lp':   11    0
                'max_lp':    9    0
                 'no_lp':   74    0

Clauses shared    #Exported  #Imported  #BinaryRead  #BinaryTotal
   'default_lp':      3'299     37'704          746           987
       'max_lp':      4'030     39'113          966           987
        'no_lp':     38'956      6'366          987           987

LRAT_status: NA
CpSolverResponse summary:
status: INFEASIBLE
objective: NA
best_bound: NA
integers: 341
booleans: 481
conflicts: 5498142
branches: 8348224
propagations: 484405987
integer_propagations: 127896483
restarts: 22405
lp_iterations: 0
walltime: 517.906
usertime: 517.906
deterministic_time: 2485.02
gap_integral: 0

{
  "board_size": 22,
  "parity_proved": 0,
  "target": 34,
  "child_id": 567,
  "child_count": 2640,
  "partition": "unknown_pair_x_diag_plus_twos_x_diag_minus_twos",
  "build_seconds": 0.07693266868591309,
  "workers": 4,
  "requested_seed": 2026072667,
  "effective_seed": 2026072667,
  "main_diagonal_pair": [
    1,
    17
  ],
  "pair_index": 36,
  "diag_plus_twos": 17,
  "diag_minus_twos": 15,
  "pair_excess": 26,
  "residual_certificate_slack": 86,
  "analytic_minimum_line_defect": 22,
  "analytic_defect_details": {
    "row_costs": {
      "12": 6,
      "13": 3,
      "14": 0,
      "15": 0,
      "16": 0,
      "17": 0
    },
    "column_costs": {
      "12": 6,
      "13": 3,
      "14": 0,
      "15": 0,
      "16": 0,
      "17": 0
    },
    "plus_cost": 0,
    "minus_cost": 22,
    "row_column_minimum": 0
  },
  "maximal_line_constraints": 2455,
  "analytic_infeasible": false,
  "allowed_points": 242,
  "status": "INFEASIBLE",
  "proof_method": "cp_sat_all_lines_with_certificate_profile_cuts",
  "elapsed_seconds": 517.9070072174072,
  "branches": 8348224,
  "conflicts": 5498142
}
